400
400
280
280
279
277
277
277
277
276
276
275
275
275
274
274
273
273
272
272
271
271
270
269
269
268
268
268
268
267
266
266
265
265
264
264
263
263
262
261
260
260
258
258
257
256
256
255
254
254
252
251
251
250
249
248
248
247
246
245
245
245
245
244
244
244
243
243
243
243
242
242
242
242
241
241
240
239
238
238
237
236
234
234
234
233
233
233
233
233
233
233
232
232
232
231
231
229
229
228
228
228
227
226
226
225
225
224
223
223
222
222
222
222
221
221
220
218
218
217
217
216
215
214
214
214
214
214
213
213
212
212
212
209
209
208
208
208
208
207
206
206
205
203
203
201
200
200
200
199
199
197
196
195
195
195
195
194
194
192
192
191
191
190
190
190
189
189
188
187
187
185
185
184
183
183
183
183
183
182
182
182
182
181
181
180
179
179
179
179
178
178
178
177
176
174
172
172
172
172
171
171
171
171
171
171
170
170
169
169
168
168
167
166
166
164
164
164
164
163
162
161
161
160
160
160
159
158
158
156
153
152
150
150
149
149
147
146
146
146
146
144
144
144
142
142
141
140
139
137
136
136
135
135
134
133
132
132
131
130
129
129
128
126
126
126
126
125
125
123
122
121
121
120
119
119
119
118
118
118
117
117
116
116
114
114
113
113
113
112
112
112
111
111
111
110
109
109
109
108
107
106
106
105
105
103
103
103
102
100
99
98
97
97
96
95
95
95
94
93
93
91
91
90
89
89
88
86
85
85
84
83
81
79
79
78
78
78
78
78
77
77
77
77
77
77
77
77
76
75
72
72
71
71
71
71
70
70
69
69
68
67
66
65
65
65
65
64
63
62
62
61
61
61
60
60
59
58
58
57
57
57
55
54
54
54
53
51
51
51
50
50
50
49
48
45
44
42
41
41
41
40
